NAME: I7200-n20-k5
COMMENT : (Fake et al, No of trucks: 5, Optimal value: )
TYPE : CVRP
DIMENSION : 20
EDGE_WEIGHT_TYPE : EUC_2D
CAPACITY : 18
NODE_COORD_SECTION
1 143 444
2 831 838
3 352 350
4 2 842
5 368 511
6 351 529
7 948 392
8 389 926
9 411 498
10 241 574
11 880 194
12 803 724
13 74 410
14 479 130
15 686 584
16 853 793
17 942 95
18 751 932
19 519 949
20 508 180
DEMAND_SECTION
1 0
2 3
3 2
4 2
5 7
6 6
7 7
8 4
9 1
10 6
11 1
12 7
13 4
14 7
15 6
16 3
17 3
18 3
19 1
20 2
DEPOT_SECTION
 1
 -1
 EOF 